QPLIB_3416
LCQ
minimize
424 # number of variables
128 # number of constraints
0.0 # default value for linear coefficients in objective
80 # number of non-default linear coefficients in objective
1 1.0
2 1.0
3 1.0
4 1.0
5 1.0
6 1.0
7 1.0
8 1.0
9 1.0
10 1.0
11 1.0
12 1.0
13 1.0
14 1.0
15 1.0
16 1.0
17 1.0
18 1.0
19 1.0
20 1.0
21 1.0
22 1.0
23 1.0
24 1.0
25 1.0
26 1.0
27 1.0
28 1.0
29 1.0
30 1.0
31 1.0
32 1.0
33 1.0
34 1.0
35 1.0
36 1.0
37 1.0
38 1.0
39 1.0
40 1.0
41 1.0
42 1.0
43 1.0
44 1.0
45 1.0
46 1.0
47 1.0
48 1.0
49 1.0
50 1.0
51 1.0
52 1.0
53 1.0
54 1.0
55 1.0
56 1.0
57 1.0
58 1.0
59 1.0
60 1.0
61 1.0
62 1.0
63 1.0
64 1.0
65 1.0
66 1.0
67 1.0
68 1.0
69 1.0
70 1.0
71 1.0
72 1.0
73 1.0
74 1.0
75 1.0
76 1.0
77 1.0
78 1.0
79 1.0
80 1.0
0.0 # objective constant
608 # number of quadratic terms in all constraints
33 1850579993 1684152432 2.0
33 1850579993 1684152432 -2.0
33 1850579993 1684152432 -2.0
33 1850579993 1684152432 -2.0
33 1850579993 1684152432 -2.0
33 1850579993 1684152432 -2.0
33 1850579993 1684152432 -2.0
33 1850579993 1684152432 -2.0
33 1850579993 1684152432 -2.0
34 540156025 32733 2.0
34 540156025 32733 -2.0
34 540156025 32733 -2.0
34 540156025 32733 -2.0
34 540156025 32733 -2.0
34 540156025 32733 -2.0
34 540156025 32733 -2.0
34 540156025 32733 -2.0
34 540156025 32733 -2.0
35 1850579993 1313752369 2.0
35 1850579993 1313752369 -2.0
35 1850579993 1313752369 -2.0
35 1850579993 1313752369 -2.0
35 1850579993 1313752369 -2.0
35 1850579993 1313752369 -2.0
35 1850579993 1313752369 -2.0
35 1850579993 1313752369 -2.0
35 1850579993 1313752369 -2.0
36 825303110 32733 2.0
36 825303110 32733 -2.0
36 825303110 32733 -2.0
36 825303110 32733 -2.0
36 825303110 32733 -2.0
36 825303110 32733 -2.0
36 825303110 32733 -2.0
36 825303110 32733 -2.0
36 825303110 32733 -2.0
37 540024882 32632641 2.0
37 540024882 32632641 -2.0
37 540024882 32632641 -2.0
37 540024882 32632641 -2.0
37 540024882 32632641 -2.0
37 540024882 32632641 -2.0
37 540024882 32632641 -2.0
37 540024882 32632641 -2.0
37 540024882 32632641 -2.0
38 540024882 1 2.0
38 540024882 1 -2.0
38 540024882 1 -2.0
38 540024882 1 -2.0
38 540024882 1 -2.0
38 540024882 1 -2.0
38 540024882 1 -2.0
38 540024882 1 -2.0
38 540024882 1 -2.0
39 1850579833 50 2.0
39 1850579833 50 -2.0
39 1850579833 50 -2.0
39 1850579833 50 -2.0
39 1850579833 50 -2.0
39 1850579833 50 -2.0
39 1850579833 50 -2.0
39 1850579833 50 -2.0
39 1850579833 50 -2.0
40 32733 1 2.0
40 32733 1 -2.0
40 32733 1 -2.0
40 32733 1 -2.0
40 32733 1 -2.0
40 32733 1 -2.0
40 32733 1 -2.0
40 32733 1 -2.0
40 32733 1 -2.0
41 1651076122 1 2.0
41 1651076122 1 -2.0
41 1651076122 1 -2.0
41 1651076122 1 -2.0
41 1651076122 1 -2.0
41 1651076122 1 -2.0
41 1651076122 1 -2.0
41 1651076122 1 -2.0
41 1651076122 1 -2.0
42 1852403556 1 2.0
42 1852403556 1 -2.0
42 1852403556 1 -2.0
42 1852403556 1 -2.0
42 1852403556 1 -2.0
42 1852403556 1 -2.0
42 1852403556 1 -2.0
42 1852403556 1 -2.0
42 1852403556 1 -2.0
43 1768711012 1 2.0
43 1768711012 1 -2.0
43 1768711012 1 -2.0
43 1768711012 1 -2.0
43 1768711012 1 -2.0
43 1768711012 1 -2.0
43 1768711012 1 -2.0
43 1768711012 1 -2.0
43 1768711012 1 -2.0
44 775173731 1 2.0
44 775173731 1 -2.0
44 775173731 1 -2.0
44 775173731 1 -2.0
44 775173731 1 -2.0
44 775173731 1 -2.0
44 775173731 1 -2.0
44 775173731 1 -2.0
44 775173731 1 -2.0
45 1646292852 1 2.0
45 1646292852 1 -2.0
45 1646292852 1 -2.0
45 1646292852 1 -2.0
45 1646292852 1 -2.0
45 1646292852 1 -2.0
45 1646292852 1 -2.0
45 1646292852 1 -2.0
45 1646292852 1 -2.0
46 824209008 1 2.0
46 824209008 1 -2.0
46 824209008 1 -2.0
46 824209008 1 -2.0
46 824209008 1 -2.0
46 824209008 1 -2.0
46 824209008 1 -2.0
46 824209008 1 -2.0
46 824209008 1 -2.0
47 1937059873 114 2.0
47 1937059873 114 -2.0
47 1937059873 114 -2.0
47 1937059873 114 -2.0
47 1937059873 114 -2.0
47 1937059873 114 -2.0
47 1937059873 114 -2.0
47 1937059873 114 -2.0
47 1937059873 114 -2.0
48 1853190703 1 2.0
48 1853190703 1 -2.0
48 1853190703 1 -2.0
48 1853190703 1 -2.0
48 1853190703 1 -2.0
48 1853190703 1 -2.0
48 1853190703 1 -2.0
48 1853190703 1 -2.0
48 1853190703 1 -2.0
49 32632641 49 2.0
49 32632641 49 -2.0
49 32632641 49 -2.0
49 32632641 49 -2.0
49 32632641 49 -2.0
49 32632641 49 -2.0
49 32632641 49 -2.0
49 32632641 49 -2.0
49 32632641 49 -2.0
50 1 1 2.0
50 1 1 -2.0
50 1 1 -2.0
50 1 1 -2.0
50 1 1 -2.0
50 1 1 -2.0
50 1 1 -2.0
50 1 1 -2.0
50 1 1 -2.0
51 1850579833 306 2.0
51 1850579833 306 -2.0
51 1850579833 306 -2.0
51 1850579833 306 -2.0
51 1850579833 306 -2.0
51 1850579833 306 -2.0
51 1850579833 306 -2.0
51 1850579833 306 -2.0
51 1850579833 306 -2.0
52 32733 1 2.0
52 32733 1 -2.0
52 32733 1 -2.0
52 32733 1 -2.0
52 32733 1 -2.0
52 32733 1 -2.0
52 32733 1 -2.0
52 32733 1 -2.0
52 32733 1 -2.0
53 1850580121 1 2.0
53 1850580121 1 -2.0
53 1850580121 1 -2.0
53 1850580121 1 -2.0
53 1850580121 1 -2.0
53 1850580121 1 -2.0
53 1850580121 1 -2.0
53 1850580121 1 -2.0
53 1850580121 1 -2.0
54 32733 1 2.0
54 32733 1 -2.0
54 32733 1 -2.0
54 32733 1 -2.0
54 32733 1 -2.0
54 32733 1 -2.0
54 32733 1 -2.0
54 32733 1 -2.0
54 32733 1 -2.0
55 1850580121 1 2.0
55 1850580121 1 -2.0
55 1850580121 1 -2.0
55 1850580121 1 -2.0
55 1850580121 1 -2.0
55 1850580121 1 -2.0
55 1850580121 1 -2.0
55 1850580121 1 -2.0
55 1850580121 1 -2.0
56 32733 1 2.0
56 32733 1 -2.0
56 32733 1 -2.0
56 32733 1 -2.0
56 32733 1 -2.0
56 32733 1 -2.0
56 32733 1 -2.0
56 32733 1 -2.0
56 32733 1 -2.0
57 33295377 1 2.0
57 33295377 1 -2.0
57 33295377 1 -2.0
57 33295377 1 -2.0
57 33295377 1 -2.0
57 33295377 1 -2.0
57 33295377 1 -2.0
57 33295377 1 -2.0
57 33295377 1 -2.0
58 1 1 2.0
58 1 1 -2.0
58 1 1 -2.0
58 1 1 -2.0
58 1 1 -2.0
58 1 1 -2.0
58 1 1 -2.0
58 1 1 -2.0
58 1 1 -2.0
59 426 66 2.0
59 426 66 -2.0
59 426 66 -2.0
59 426 66 -2.0
59 426 66 -2.0
59 426 66 -2.0
59 426 66 -2.0
59 426 66 -2.0
59 426 66 -2.0
60 1 1 2.0
60 1 1 -2.0
60 1 1 -2.0
60 1 1 -2.0
60 1 1 -2.0
60 1 1 -2.0
60 1 1 -2.0
60 1 1 -2.0
60 1 1 -2.0
61 1850579833 1 2.0
61 1850579833 1 -2.0
61 1850579833 1 -2.0
61 1850579833 1 -2.0
61 1850579833 1 -2.0
61 1850579833 1 -2.0
61 1850579833 1 -2.0
61 1850579833 1 -2.0
61 1850579833 1 -2.0
62 32733 1 2.0
62 32733 1 -2.0
62 32733 1 -2.0
62 32733 1 -2.0
62 32733 1 -2.0
62 32733 1 -2.0
62 32733 1 -2.0
62 32733 1 -2.0
62 32733 1 -2.0
63 32635121 1 2.0
63 32635121 1 -2.0
63 32635121 1 -2.0
63 32635121 1 -2.0
63 32635121 1 -2.0
63 32635121 1 -2.0
63 32635121 1 -2.0
63 32635121 1 -2.0
63 32635121 1 -2.0
64 1 1 2.0
64 1 1 -2.0
64 1 1 -2.0
64 1 1 -2.0
64 1 1 -2.0
64 1 1 -2.0
64 1 1 -2.0
64 1 1 -2.0
64 1 1 -2.0
65 32632449 1 -2.0
65 32632449 1 -2.0
65 32632449 1 -2.0
65 32632449 1 -2.0
65 32632449 1 -2.0
65 32632449 1 -2.0
65 32632449 1 -2.0
65 32632449 1 -2.0
66 1 1 -2.0
66 1 1 -2.0
66 1 1 -2.0
66 1 1 -2.0
66 1 1 -2.0
66 1 1 -2.0
66 1 1 -2.0
66 1 1 -2.0
67 32635137 6945 -2.0
67 32635137 6945 -2.0
67 32635137 6945 -2.0
67 32635137 6945 -2.0
67 32635137 6945 -2.0
67 32635137 6945 -2.0
67 32635137 6945 -2.0
67 32635137 6945 -2.0
68 1 1 -2.0
68 1 1 -2.0
68 1 1 -2.0
68 1 1 -2.0
68 1 1 -2.0
68 1 1 -2.0
68 1 1 -2.0
68 1 1 -2.0
69 33298609 23 -2.0
69 33298609 23 -2.0
69 33298609 23 -2.0
69 33298609 23 -2.0
69 33298609 23 -2.0
69 33298609 23 -2.0
69 33298609 23 -2.0
69 33298609 23 -2.0
70 23 1 -2.0
70 23 1 -2.0
70 23 1 -2.0
70 23 1 -2.0
70 23 1 -2.0
70 23 1 -2.0
70 23 1 -2.0
70 23 1 -2.0
71 226 1 -2.0
71 226 1 -2.0
71 226 1 -2.0
71 226 1 -2.0
71 226 1 -2.0
71 226 1 -2.0
71 226 1 -2.0
71 226 1 -2.0
72 1 1 -2.0
72 1 1 -2.0
72 1 1 -2.0
72 1 1 -2.0
72 1 1 -2.0
72 1 1 -2.0
72 1 1 -2.0
72 1 1 -2.0
73 33293649 177 -2.0
73 33293649 177 -2.0
73 33293649 177 -2.0
73 33293649 177 -2.0
73 33293649 177 -2.0
73 33293649 177 -2.0
73 33293649 177 -2.0
73 33293649 177 -2.0
74 1 1 -2.0
74 1 1 -2.0
74 1 1 -2.0
74 1 1 -2.0
74 1 1 -2.0
74 1 1 -2.0
74 1 1 -2.0
74 1 1 -2.0
75 32632225 529 -2.0
75 32632225 529 -2.0
75 32632225 529 -2.0
75 32632225 529 -2.0
75 32632225 529 -2.0
75 32632225 529 -2.0
75 32632225 529 -2.0
75 32632225 529 -2.0
76 1 1 -2.0
76 1 1 -2.0
76 1 1 -2.0
76 1 1 -2.0
76 1 1 -2.0
76 1 1 -2.0
76 1 1 -2.0
76 1 1 -2.0
77 33 1 -2.0
77 33 1 -2.0
77 33 1 -2.0
77 33 1 -2.0
77 33 1 -2.0
77 33 1 -2.0
77 33 1 -2.0
77 33 1 -2.0
78 1 1 -2.0
78 1 1 -2.0
78 1 1 -2.0
78 1 1 -2.0
78 1 1 -2.0
78 1 1 -2.0
78 1 1 -2.0
78 1 1 -2.0
79 49 1 -2.0
79 49 1 -2.0
79 49 1 -2.0
79 49 1 -2.0
79 49 1 -2.0
79 49 1 -2.0
79 49 1 -2.0
79 49 1 -2.0
80 1 1 -2.0
80 1 1 -2.0
80 1 1 -2.0
80 1 1 -2.0
80 1 1 -2.0
80 1 1 -2.0
80 1 1 -2.0
80 1 1 -2.0
81 32632593 1 -2.0
81 32632593 1 -2.0
81 32632593 1 -2.0
81 32632593 1 -2.0
81 32632593 1 -2.0
81 32632593 1 -2.0
81 32632593 1 -2.0
81 32632593 1 -2.0
82 1 1 -2.0
82 1 1 -2.0
82 1 1 -2.0
82 1 1 -2.0
82 1 1 -2.0
82 1 1 -2.0
82 1 1 -2.0
82 1 1 -2.0
83 1 1 -2.0
83 1 1 -2.0
83 1 1 -2.0
83 1 1 -2.0
83 1 1 -2.0
83 1 1 -2.0
83 1 1 -2.0
83 1 1 -2.0
84 1 1 -2.0
84 1 1 -2.0
84 1 1 -2.0
84 1 1 -2.0
84 1 1 -2.0
84 1 1 -2.0
84 1 1 -2.0
84 1 1 -2.0
85 1 1 -2.0
85 1 1 -2.0
85 1 1 -2.0
85 1 1 -2.0
85 1 1 -2.0
85 1 1 -2.0
85 1 1 -2.0
85 1 1 -2.0
86 1 1 -2.0
86 1 1 -2.0
86 1 1 -2.0
86 1 1 -2.0
86 1 1 -2.0
86 1 1 -2.0
86 1 1 -2.0
86 1 1 -2.0
87 1 1 -2.0
87 1 1 -2.0
87 1 1 -2.0
87 1 1 -2.0
87 1 1 -2.0
87 1 1 -2.0
87 1 1 -2.0
87 1 1 -2.0
88 1 1 -2.0
88 1 1 -2.0
88 1 1 -2.0
88 1 1 -2.0
88 1 1 -2.0
88 1 1 -2.0
88 1 1 -2.0
88 1 1 -2.0
89 81 1 -2.0
89 81 1 -2.0
89 81 1 -2.0
89 81 1 -2.0
89 81 1 -2.0
89 81 1 -2.0
89 81 1 -2.0
89 81 1 -2.0
90 1 1 -2.0
90 1 1 -2.0
90 1 1 -2.0
90 1 1 -2.0
90 1 1 -2.0
90 1 1 -2.0
90 1 1 -2.0
90 1 1 -2.0
91 49 1 -2.0
91 49 1 -2.0
91 49 1 -2.0
91 49 1 -2.0
91 49 1 -2.0
91 49 1 -2.0
91 49 1 -2.0
91 49 1 -2.0
92 1 1 -2.0
92 1 1 -2.0
92 1 1 -2.0
92 1 1 -2.0
92 1 1 -2.0
92 1 1 -2.0
92 1 1 -2.0
92 1 1 -2.0
93 1 1 -2.0
93 1 1 -2.0
93 1 1 -2.0
93 1 1 -2.0
93 1 1 -2.0
93 1 1 -2.0
93 1 1 -2.0
93 1 1 -2.0
94 1 1 -2.0
94 1 1 -2.0
94 1 1 -2.0
94 1 1 -2.0
94 1 1 -2.0
94 1 1 -2.0
94 1 1 -2.0
94 1 1 -2.0
95 1 1 -2.0
95 1 1 -2.0
95 1 1 -2.0
95 1 1 -2.0
95 1 1 -2.0
95 1 1 -2.0
95 1 1 -2.0
95 1 1 -2.0
96 1 1 -2.0
96 1 1 -2.0
96 1 1 -2.0
96 1 1 -2.0
96 1 1 -2.0
96 1 1 -2.0
96 1 1 -2.0
96 1 1 -2.0
97 1 1 2.0
97 1 1 -2.0
98 1 1 2.0
98 1 1 -2.0
99 1 1 2.0
99 1 1 -2.0
100 1 1 2.0
100 1 1 -2.0
101 1 1 2.0
101 1 1 -2.0
102 1 1 2.0
102 1 1 -2.0
103 98 1 2.0
103 98 1 -2.0
104 1 1 2.0
104 1 1 -2.0
105 32678801 1 2.0
105 32678801 1 -2.0
106 1 1 2.0
106 1 1 -2.0
107 32633617 1 2.0
107 32633617 1 -2.0
108 1 1 2.0
108 1 1 -2.0
109 32652177 1 2.0
109 32652177 1 -2.0
110 1 1 2.0
110 1 1 -2.0
111 66 1 2.0
111 66 1 -2.0
112 1 1 2.0
112 1 1 -2.0
113 32633857 1 2.0
113 32633857 1 -2.0
114 1 1 2.0
114 1 1 -2.0
115 32635121 1 2.0
115 32635121 1 -2.0
116 1 1 2.0
116 1 1 -2.0
117 1 1 2.0
117 1 1 -2.0
118 2 1 2.0
118 2 1 -2.0
119 1 1 2.0
119 1 1 -2.0
120 426 1 2.0
120 426 1 -2.0
121 1 1 2.0
121 1 1 -2.0
122 1 1 2.0
122 1 1 -2.0
123 32632449 1 2.0
123 32632449 1 -2.0
124 1 1 2.0
124 1 1 -2.0
125 305 1 2.0
125 305 1 -2.0
126 1 1 2.0
126 1 1 -2.0
127 113 1 2.0
127 113 1 -2.0
128 1 1 2.0
128 1 1 -2.0
1456 # number of linear terms in all constraints
1 1 -1.0
1 17 -1.0
1 33 -1.0
1 49 -1.0
1 65 -1.0
1 145 1.0
1 146 -1.0
1 147 -1.0
1 148 -1.0
1 149 -1.0
1 150 -1.0
1 151 -1.0
1 152 -1.0
1 153 -1.0
1 154 -1.0
1 155 -1.0
1 156 -1.0
1 157 -1.0
1 158 -1.0
1 159 -1.0
1 160 -1.0
1 161 -1.0
2 2 -1.0
2 18 -1.0
2 34 -1.0
2 50 -1.0
2 66 -1.0
2 162 1.0
2 163 -1.0
2 164 -1.0
2 165 -1.0
2 166 -1.0
2 167 -1.0
2 168 -1.0
2 169 -1.0
2 170 -1.0
2 171 -1.0
2 172 -1.0
2 173 -1.0
2 174 -1.0
2 175 -1.0
2 176 -1.0
2 177 -1.0
2 178 -1.0
3 3 -1.0
3 19 -1.0
3 35 -1.0
3 51 -1.0
3 67 -1.0
3 179 1.0
3 180 -1.0
3 181 -1.0
3 182 -1.0
3 183 -1.0
3 184 -1.0
3 185 -1.0
3 186 -1.0
3 187 -1.0
3 188 -1.0
3 189 -1.0
3 190 -1.0
3 191 -1.0
3 192 -1.0
3 193 -1.0
3 194 -1.0
3 195 -1.0
4 4 -1.0
4 20 -1.0
4 36 -1.0
4 52 -1.0
4 68 -1.0
4 196 1.0
4 197 -1.0
4 198 -1.0
4 199 -1.0
4 200 -1.0
4 201 -1.0
4 202 -1.0
4 203 -1.0
4 204 -1.0
4 205 -1.0
4 206 -1.0
4 207 -1.0
4 208 -1.0
4 209 -1.0
4 210 -1.0
4 211 -1.0
4 212 -1.0
5 5 -1.0
5 21 -1.0
5 37 -1.0
5 53 -1.0
5 69 -1.0
5 213 1.0
5 214 -1.0
5 215 -1.0
5 216 -1.0
5 217 -1.0
5 218 -1.0
5 219 -1.0
5 220 -1.0
5 221 -1.0
5 222 -1.0
5 223 -1.0
5 224 -1.0
5 225 -1.0
5 226 -1.0
5 227 -1.0
5 228 -1.0
5 229 -1.0
6 6 -1.0
6 22 -1.0
6 38 -1.0
6 54 -1.0
6 70 -1.0
6 230 1.0
6 231 -1.0
6 232 -1.0
6 233 -1.0
6 234 -1.0
6 235 -1.0
6 236 -1.0
6 237 -1.0
6 238 -1.0
6 239 -1.0
6 240 -1.0
6 241 -1.0
6 242 -1.0
6 243 -1.0
6 244 -1.0
6 245 -1.0
6 246 -1.0
7 7 -1.0
7 23 -1.0
7 39 -1.0
7 55 -1.0
7 71 -1.0
7 247 1.0
7 248 -1.0
7 249 -1.0
7 250 -1.0
7 251 -1.0
7 252 -1.0
7 253 -1.0
7 254 -1.0
7 255 -1.0
7 256 -1.0
7 257 -1.0
7 258 -1.0
7 259 -1.0
7 260 -1.0
7 261 -1.0
7 262 -1.0
7 263 -1.0
8 8 -1.0
8 24 -1.0
8 40 -1.0
8 56 -1.0
8 72 -1.0
8 264 1.0
8 265 -1.0
8 266 -1.0
8 267 -1.0
8 268 -1.0
8 269 -1.0
8 270 -1.0
8 271 -1.0
8 272 -1.0
8 273 -1.0
8 274 -1.0
8 275 -1.0
8 276 -1.0
8 277 -1.0
8 278 -1.0
8 279 -1.0
8 280 -1.0
9 9 -1.0
9 25 -1.0
9 41 -1.0
9 57 -1.0
9 73 -1.0
9 281 -1.0
9 282 -1.0
9 283 -1.0
9 284 -1.0
9 285 -1.0
9 286 -1.0
9 287 -1.0
9 288 -1.0
9 289 -1.0
9 290 -1.0
9 291 -1.0
9 292 -1.0
9 293 -1.0
9 294 -1.0
9 295 -1.0
9 296 -1.0
10 10 -1.0
10 26 -1.0
10 42 -1.0
10 58 -1.0
10 74 -1.0
10 297 -1.0
10 298 -1.0
10 299 -1.0
10 300 -1.0
10 301 -1.0
10 302 -1.0
10 303 -1.0
10 304 -1.0
10 305 -1.0
10 306 -1.0
10 307 -1.0
10 308 -1.0
10 309 -1.0
10 310 -1.0
10 311 -1.0
10 312 -1.0
11 11 -1.0
11 27 -1.0
11 43 -1.0
11 59 -1.0
11 75 -1.0
11 313 -1.0
11 314 -1.0
11 315 -1.0
11 316 -1.0
11 317 -1.0
11 318 -1.0
11 319 -1.0
11 320 -1.0
11 321 -1.0
11 322 -1.0
11 323 -1.0
11 324 -1.0
11 325 -1.0
11 326 -1.0
11 327 -1.0
11 328 -1.0
12 12 -1.0
12 28 -1.0
12 44 -1.0
12 60 -1.0
12 76 -1.0
12 329 -1.0
12 330 -1.0
12 331 -1.0
12 332 -1.0
12 333 -1.0
12 334 -1.0
12 335 -1.0
12 336 -1.0
12 337 -1.0
12 338 -1.0
12 339 -1.0
12 340 -1.0
12 341 -1.0
12 342 -1.0
12 343 -1.0
12 344 -1.0
13 13 -1.0
13 29 -1.0
13 45 -1.0
13 61 -1.0
13 77 -1.0
13 345 -1.0
13 346 -1.0
13 347 -1.0
13 348 -1.0
13 349 -1.0
13 350 -1.0
13 351 -1.0
13 352 -1.0
13 353 -1.0
13 354 -1.0
13 355 -1.0
13 356 -1.0
13 357 -1.0
13 358 -1.0
13 359 -1.0
13 360 -1.0
14 14 -1.0
14 30 -1.0
14 46 -1.0
14 62 -1.0
14 78 -1.0
14 361 -1.0
14 362 -1.0
14 363 -1.0
14 364 -1.0
14 365 -1.0
14 366 -1.0
14 367 -1.0
14 368 -1.0
14 369 -1.0
14 370 -1.0
14 371 -1.0
14 372 -1.0
14 373 -1.0
14 374 -1.0
14 375 -1.0
14 376 -1.0
15 15 -1.0
15 31 -1.0
15 47 -1.0
15 63 -1.0
15 79 -1.0
15 377 -1.0
15 378 -1.0
15 379 -1.0
15 380 -1.0
15 381 -1.0
15 382 -1.0
15 383 -1.0
15 384 -1.0
15 385 -1.0
15 386 -1.0
15 387 -1.0
15 388 -1.0
15 389 -1.0
15 390 -1.0
15 391 -1.0
15 392 -1.0
16 16 -1.0
16 32 -1.0
16 48 -1.0
16 64 -1.0
16 80 -1.0
16 393 -1.0
16 394 -1.0
16 395 -1.0
16 396 -1.0
16 397 -1.0
16 398 -1.0
16 399 -1.0
16 400 -1.0
16 401 -1.0
16 402 -1.0
16 403 -1.0
16 404 -1.0
16 405 -1.0
16 406 -1.0
16 407 -1.0
16 408 -1.0
17 145 1.0
17 146 -1.0
17 163 -1.0
17 180 -1.0
17 197 -1.0
17 214 -1.0
17 231 -1.0
17 248 -1.0
17 265 -1.0
17 281 -1.0
17 297 -1.0
17 313 -1.0
17 329 -1.0
17 345 -1.0
17 361 -1.0
17 377 -1.0
17 393 -1.0
17 409 -1.0
18 147 -1.0
18 162 1.0
18 164 -1.0
18 181 -1.0
18 198 -1.0
18 215 -1.0
18 232 -1.0
18 249 -1.0
18 266 -1.0
18 282 -1.0
18 298 -1.0
18 314 -1.0
18 330 -1.0
18 346 -1.0
18 362 -1.0
18 378 -1.0
18 394 -1.0
18 410 -1.0
19 148 -1.0
19 165 -1.0
19 179 1.0
19 182 -1.0
19 199 -1.0
19 216 -1.0
19 233 -1.0
19 250 -1.0
19 267 -1.0
19 283 -1.0
19 299 -1.0
19 315 -1.0
19 331 -1.0
19 347 -1.0
19 363 -1.0
19 379 -1.0
19 395 -1.0
19 411 -1.0
20 149 -1.0
20 166 -1.0
20 183 -1.0
20 196 1.0
20 200 -1.0
20 217 -1.0
20 234 -1.0
20 251 -1.0
20 268 -1.0
20 284 -1.0
20 300 -1.0
20 316 -1.0
20 332 -1.0
20 348 -1.0
20 364 -1.0
20 380 -1.0
20 396 -1.0
20 412 -1.0
21 150 -1.0
21 167 -1.0
21 184 -1.0
21 201 -1.0
21 213 1.0
21 218 -1.0
21 235 -1.0
21 252 -1.0
21 269 -1.0
21 285 -1.0
21 301 -1.0
21 317 -1.0
21 333 -1.0
21 349 -1.0
21 365 -1.0
21 381 -1.0
21 397 -1.0
21 413 -1.0
22 151 -1.0
22 168 -1.0
22 185 -1.0
22 202 -1.0
22 219 -1.0
22 230 1.0
22 236 -1.0
22 253 -1.0
22 270 -1.0
22 286 -1.0
22 302 -1.0
22 318 -1.0
22 334 -1.0
22 350 -1.0
22 366 -1.0
22 382 -1.0
22 398 -1.0
22 414 -1.0
23 152 -1.0
23 169 -1.0
23 186 -1.0
23 203 -1.0
23 220 -1.0
23 237 -1.0
23 247 1.0
23 254 -1.0
23 271 -1.0
23 287 -1.0
23 303 -1.0
23 319 -1.0
23 335 -1.0
23 351 -1.0
23 367 -1.0
23 383 -1.0
23 399 -1.0
23 415 -1.0
24 153 -1.0
24 170 -1.0
24 187 -1.0
24 204 -1.0
24 221 -1.0
24 238 -1.0
24 255 -1.0
24 264 1.0
24 272 -1.0
24 288 -1.0
24 304 -1.0
24 320 -1.0
24 336 -1.0
24 352 -1.0
24 368 -1.0
24 384 -1.0
24 400 -1.0
24 416 -1.0
25 154 -1.0
25 171 -1.0
25 188 -1.0
25 205 -1.0
25 222 -1.0
25 239 -1.0
25 256 -1.0
25 273 -1.0
25 289 -1.0
25 305 -1.0
25 321 -1.0
25 337 -1.0
25 353 -1.0
25 369 -1.0
25 385 -1.0
25 401 -1.0
25 417 -1.0
26 155 -1.0
26 172 -1.0
26 189 -1.0
26 206 -1.0
26 223 -1.0
26 240 -1.0
26 257 -1.0
26 274 -1.0
26 290 -1.0
26 306 -1.0
26 322 -1.0
26 338 -1.0
26 354 -1.0
26 370 -1.0
26 386 -1.0
26 402 -1.0
26 418 -1.0
27 156 -1.0
27 173 -1.0
27 190 -1.0
27 207 -1.0
27 224 -1.0
27 241 -1.0
27 258 -1.0
27 275 -1.0
27 291 -1.0
27 307 -1.0
27 323 -1.0
27 339 -1.0
27 355 -1.0
27 371 -1.0
27 387 -1.0
27 403 -1.0
27 419 -1.0
28 157 -1.0
28 174 -1.0
28 191 -1.0
28 208 -1.0
28 225 -1.0
28 242 -1.0
28 259 -1.0
28 276 -1.0
28 292 -1.0
28 308 -1.0
28 324 -1.0
28 340 -1.0
28 356 -1.0
28 372 -1.0
28 388 -1.0
28 404 -1.0
28 420 -1.0
29 158 -1.0
29 175 -1.0
29 192 -1.0
29 209 -1.0
29 226 -1.0
29 243 -1.0
29 260 -1.0
29 277 -1.0
29 293 -1.0
29 309 -1.0
29 325 -1.0
29 341 -1.0
29 357 -1.0
29 373 -1.0
29 389 -1.0
29 405 -1.0
29 421 -1.0
30 159 -1.0
30 176 -1.0
30 193 -1.0
30 210 -1.0
30 227 -1.0
30 244 -1.0
30 261 -1.0
30 278 -1.0
30 294 -1.0
30 310 -1.0
30 326 -1.0
30 342 -1.0
30 358 -1.0
30 374 -1.0
30 390 -1.0
30 406 -1.0
30 422 -1.0
31 160 -1.0
31 177 -1.0
31 194 -1.0
31 211 -1.0
31 228 -1.0
31 245 -1.0
31 262 -1.0
31 279 -1.0
31 295 -1.0
31 311 -1.0
31 327 -1.0
31 343 -1.0
31 359 -1.0
31 375 -1.0
31 391 -1.0
31 407 -1.0
31 423 -1.0
32 161 -1.0
32 178 -1.0
32 195 -1.0
32 212 -1.0
32 229 -1.0
32 246 -1.0
32 263 -1.0
32 280 -1.0
32 296 -1.0
32 312 -1.0
32 328 -1.0
32 344 -1.0
32 360 -1.0
32 376 -1.0
32 392 -1.0
32 408 -1.0
32 424 -1.0
33 1 -2.0
33 17 -7.0
33 33 -7.0
33 49 -7.0
33 65 -6.0
33 154 -2704.0
33 155 -2504.0
33 156 -2966.0
33 157 -1446.0
33 158 -2236.0
33 159 -2808.0
33 160 -1753.0
33 161 -1379.0
34 1 -9.0
34 17 -6.0
34 33 -9.0
34 49 -9.0
34 65 -9.0
34 154 -2282.0
34 155 -2858.0
34 156 -2563.0
34 157 -1730.0
34 158 -2292.0
34 159 -1630.0
34 160 -1716.0
34 161 -2352.0
35 1 -8.0
35 17 -4.0
35 33 -7.0
35 49 -5.0
35 65 -2.0
35 154 -2753.0
35 155 -2823.0
35 156 -2218.0
35 157 -2830.0
35 158 -1911.0
35 159 -2281.0
35 160 -890.0
35 161 -2532.0
36 1 -1.0
36 17 -6.0
36 33 -1.0
36 49 -1.0
36 65 -1.0
36 154 -716.0
36 155 -2142.0
36 156 -2127.0
36 157 -2558.0
36 158 -2001.0
36 159 -1996.0
36 160 -1853.0
36 161 -626.0
37 2 -2.0
37 18 -7.0
37 34 -7.0
37 50 -7.0
37 66 -6.0
37 171 -2704.0
37 172 -2504.0
37 173 -2966.0
37 174 -1446.0
37 175 -2236.0
37 176 -2808.0
37 177 -1753.0
37 178 -1379.0
38 2 -9.0
38 18 -6.0
38 34 -9.0
38 50 -9.0
38 66 -9.0
38 171 -2282.0
38 172 -2858.0
38 173 -2563.0
38 174 -1730.0
38 175 -2292.0
38 176 -1630.0
38 177 -1716.0
38 178 -2352.0
39 2 -8.0
39 18 -4.0
39 34 -7.0
39 50 -5.0
39 66 -2.0
39 171 -2753.0
39 172 -2823.0
39 173 -2218.0
39 174 -2830.0
39 175 -1911.0
39 176 -2281.0
39 177 -890.0
39 178 -2532.0
40 2 -1.0
40 18 -6.0
40 34 -1.0
40 50 -1.0
40 66 -1.0
40 171 -716.0
40 172 -2142.0
40 173 -2127.0
40 174 -2558.0
40 175 -2001.0
40 176 -1996.0
40 177 -1853.0
40 178 -626.0
41 3 -2.0
41 19 -7.0
41 35 -7.0
41 51 -7.0
41 67 -6.0
41 188 -2704.0
41 189 -2504.0
41 190 -2966.0
41 191 -1446.0
41 192 -2236.0
41 193 -2808.0
41 194 -1753.0
41 195 -1379.0
42 3 -9.0
42 19 -6.0
42 35 -9.0
42 51 -9.0
42 67 -9.0
42 188 -2282.0
42 189 -2858.0
42 190 -2563.0
42 191 -1730.0
42 192 -2292.0
42 193 -1630.0
42 194 -1716.0
42 195 -2352.0
43 3 -8.0
43 19 -4.0
43 35 -7.0
43 51 -5.0
43 67 -2.0
43 188 -2753.0
43 189 -2823.0
43 190 -2218.0
43 191 -2830.0
43 192 -1911.0
43 193 -2281.0
43 194 -890.0
43 195 -2532.0
44 3 -1.0
44 19 -6.0
44 35 -1.0
44 51 -1.0
44 67 -1.0
44 188 -716.0
44 189 -2142.0
44 190 -2127.0
44 191 -2558.0
44 192 -2001.0
44 193 -1996.0
44 194 -1853.0
44 195 -626.0
45 4 -2.0
45 20 -7.0
45 36 -7.0
45 52 -7.0
45 68 -6.0
45 205 -2704.0
45 206 -2504.0
45 207 -2966.0
45 208 -1446.0
45 209 -2236.0
45 210 -2808.0
45 211 -1753.0
45 212 -1379.0
46 4 -9.0
46 20 -6.0
46 36 -9.0
46 52 -9.0
46 68 -9.0
46 205 -2282.0
46 206 -2858.0
46 207 -2563.0
46 208 -1730.0
46 209 -2292.0
46 210 -1630.0
46 211 -1716.0
46 212 -2352.0
47 4 -8.0
47 20 -4.0
47 36 -7.0
47 52 -5.0
47 68 -2.0
47 205 -2753.0
47 206 -2823.0
47 207 -2218.0
47 208 -2830.0
47 209 -1911.0
47 210 -2281.0
47 211 -890.0
47 212 -2532.0
48 4 -1.0
48 20 -6.0
48 36 -1.0
48 52 -1.0
48 68 -1.0
48 205 -716.0
48 206 -2142.0
48 207 -2127.0
48 208 -2558.0
48 209 -2001.0
48 210 -1996.0
48 211 -1853.0
48 212 -626.0
49 5 -2.0
49 21 -7.0
49 37 -7.0
49 53 -7.0
49 69 -6.0
49 222 -2704.0
49 223 -2504.0
49 224 -2966.0
49 225 -1446.0
49 226 -2236.0
49 227 -2808.0
49 228 -1753.0
49 229 -1379.0
50 5 -9.0
50 21 -6.0
50 37 -9.0
50 53 -9.0
50 69 -9.0
50 222 -2282.0
50 223 -2858.0
50 224 -2563.0
50 225 -1730.0
50 226 -2292.0
50 227 -1630.0
50 228 -1716.0
50 229 -2352.0
51 5 -8.0
51 21 -4.0
51 37 -7.0
51 53 -5.0
51 69 -2.0
51 222 -2753.0
51 223 -2823.0
51 224 -2218.0
51 225 -2830.0
51 226 -1911.0
51 227 -2281.0
51 228 -890.0
51 229 -2532.0
52 5 -1.0
52 21 -6.0
52 37 -1.0
52 53 -1.0
52 69 -1.0
52 222 -716.0
52 223 -2142.0
52 224 -2127.0
52 225 -2558.0
52 226 -2001.0
52 227 -1996.0
52 228 -1853.0
52 229 -626.0
53 6 -2.0
53 22 -7.0
53 38 -7.0
53 54 -7.0
53 70 -6.0
53 239 -2704.0
53 240 -2504.0
53 241 -2966.0
53 242 -1446.0
53 243 -2236.0
53 244 -2808.0
53 245 -1753.0
53 246 -1379.0
54 6 -9.0
54 22 -6.0
54 38 -9.0
54 54 -9.0
54 70 -9.0
54 239 -2282.0
54 240 -2858.0
54 241 -2563.0
54 242 -1730.0
54 243 -2292.0
54 244 -1630.0
54 245 -1716.0
54 246 -2352.0
55 6 -8.0
55 22 -4.0
55 38 -7.0
55 54 -5.0
55 70 -2.0
55 239 -2753.0
55 240 -2823.0
55 241 -2218.0
55 242 -2830.0
55 243 -1911.0
55 244 -2281.0
55 245 -890.0
55 246 -2532.0
56 6 -1.0
56 22 -6.0
56 38 -1.0
56 54 -1.0
56 70 -1.0
56 239 -716.0
56 240 -2142.0
56 241 -2127.0
56 242 -2558.0
56 243 -2001.0
56 244 -1996.0
56 245 -1853.0
56 246 -626.0
57 7 -2.0
57 23 -7.0
57 39 -7.0
57 55 -7.0
57 71 -6.0
57 256 -2704.0
57 257 -2504.0
57 258 -2966.0
57 259 -1446.0
57 260 -2236.0
57 261 -2808.0
57 262 -1753.0
57 263 -1379.0
58 7 -9.0
58 23 -6.0
58 39 -9.0
58 55 -9.0
58 71 -9.0
58 256 -2282.0
58 257 -2858.0
58 258 -2563.0
58 259 -1730.0
58 260 -2292.0
58 261 -1630.0
58 262 -1716.0
58 263 -2352.0
59 7 -8.0
59 23 -4.0
59 39 -7.0
59 55 -5.0
59 71 -2.0
59 256 -2753.0
59 257 -2823.0
59 258 -2218.0
59 259 -2830.0
59 260 -1911.0
59 261 -2281.0
59 262 -890.0
59 263 -2532.0
60 7 -1.0
60 23 -6.0
60 39 -1.0
60 55 -1.0
60 71 -1.0
60 256 -716.0
60 257 -2142.0
60 258 -2127.0
60 259 -2558.0
60 260 -2001.0
60 261 -1996.0
60 262 -1853.0
60 263 -626.0
61 8 -2.0
61 24 -7.0
61 40 -7.0
61 56 -7.0
61 72 -6.0
61 273 -2704.0
61 274 -2504.0
61 275 -2966.0
61 276 -1446.0
61 277 -2236.0
61 278 -2808.0
61 279 -1753.0
61 280 -1379.0
62 8 -9.0
62 24 -6.0
62 40 -9.0
62 56 -9.0
62 72 -9.0
62 273 -2282.0
62 274 -2858.0
62 275 -2563.0
62 276 -1730.0
62 277 -2292.0
62 278 -1630.0
62 279 -1716.0
62 280 -2352.0
63 8 -8.0
63 24 -4.0
63 40 -7.0
63 56 -5.0
63 72 -2.0
63 273 -2753.0
63 274 -2823.0
63 275 -2218.0
63 276 -2830.0
63 277 -1911.0
63 278 -2281.0
63 279 -890.0
63 280 -2532.0
64 8 -1.0
64 24 -6.0
64 40 -1.0
64 56 -1.0
64 72 -1.0
64 273 -716.0
64 274 -2142.0
64 275 -2127.0
64 276 -2558.0
64 277 -2001.0
64 278 -1996.0
64 279 -1853.0
64 280 -626.0
65 9 -2.0
65 25 -7.0
65 41 -7.0
65 57 -7.0
65 73 -6.0
65 289 -2704.0
65 290 -2504.0
65 291 -2966.0
65 292 -1446.0
65 293 -2236.0
65 294 -2808.0
65 295 -1753.0
65 296 -1379.0
66 9 -9.0
66 25 -6.0
66 41 -9.0
66 57 -9.0
66 73 -9.0
66 289 -2282.0
66 290 -2858.0
66 291 -2563.0
66 292 -1730.0
66 293 -2292.0
66 294 -1630.0
66 295 -1716.0
66 296 -2352.0
67 9 -8.0
67 25 -4.0
67 41 -7.0
67 57 -5.0
67 73 -2.0
67 289 -2753.0
67 290 -2823.0
67 291 -2218.0
67 292 -2830.0
67 293 -1911.0
67 294 -2281.0
67 295 -890.0
67 296 -2532.0
68 9 -1.0
68 25 -6.0
68 41 -1.0
68 57 -1.0
68 73 -1.0
68 289 -716.0
68 290 -2142.0
68 291 -2127.0
68 292 -2558.0
68 293 -2001.0
68 294 -1996.0
68 295 -1853.0
68 296 -626.0
69 10 -2.0
69 26 -7.0
69 42 -7.0
69 58 -7.0
69 74 -6.0
69 305 -2704.0
69 306 -2504.0
69 307 -2966.0
69 308 -1446.0
69 309 -2236.0
69 310 -2808.0
69 311 -1753.0
69 312 -1379.0
70 10 -9.0
70 26 -6.0
70 42 -9.0
70 58 -9.0
70 74 -9.0
70 305 -2282.0
70 306 -2858.0
70 307 -2563.0
70 308 -1730.0
70 309 -2292.0
70 310 -1630.0
70 311 -1716.0
70 312 -2352.0
71 10 -8.0
71 26 -4.0
71 42 -7.0
71 58 -5.0
71 74 -2.0
71 305 -2753.0
71 306 -2823.0
71 307 -2218.0
71 308 -2830.0
71 309 -1911.0
71 310 -2281.0
71 311 -890.0
71 312 -2532.0
72 10 -1.0
72 26 -6.0
72 42 -1.0
72 58 -1.0
72 74 -1.0
72 305 -716.0
72 306 -2142.0
72 307 -2127.0
72 308 -2558.0
72 309 -2001.0
72 310 -1996.0
72 311 -1853.0
72 312 -626.0
73 11 -2.0
73 27 -7.0
73 43 -7.0
73 59 -7.0
73 75 -6.0
73 321 -2704.0
73 322 -2504.0
73 323 -2966.0
73 324 -1446.0
73 325 -2236.0
73 326 -2808.0
73 327 -1753.0
73 328 -1379.0
74 11 -9.0
74 27 -6.0
74 43 -9.0
74 59 -9.0
74 75 -9.0
74 321 -2282.0
74 322 -2858.0
74 323 -2563.0
74 324 -1730.0
74 325 -2292.0
74 326 -1630.0
74 327 -1716.0
74 328 -2352.0
75 11 -8.0
75 27 -4.0
75 43 -7.0
75 59 -5.0
75 75 -2.0
75 321 -2753.0
75 322 -2823.0
75 323 -2218.0
75 324 -2830.0
75 325 -1911.0
75 326 -2281.0
75 327 -890.0
75 328 -2532.0
76 11 -1.0
76 27 -6.0
76 43 -1.0
76 59 -1.0
76 75 -1.0
76 321 -716.0
76 322 -2142.0
76 323 -2127.0
76 324 -2558.0
76 325 -2001.0
76 326 -1996.0
76 327 -1853.0
76 328 -626.0
77 12 -2.0
77 28 -7.0
77 44 -7.0
77 60 -7.0
77 76 -6.0
77 337 -2704.0
77 338 -2504.0
77 339 -2966.0
77 340 -1446.0
77 341 -2236.0
77 342 -2808.0
77 343 -1753.0
77 344 -1379.0
78 12 -9.0
78 28 -6.0
78 44 -9.0
78 60 -9.0
78 76 -9.0
78 337 -2282.0
78 338 -2858.0
78 339 -2563.0
78 340 -1730.0
78 341 -2292.0
78 342 -1630.0
78 343 -1716.0
78 344 -2352.0
79 12 -8.0
79 28 -4.0
79 44 -7.0
79 60 -5.0
79 76 -2.0
79 337 -2753.0
79 338 -2823.0
79 339 -2218.0
79 340 -2830.0
79 341 -1911.0
79 342 -2281.0
79 343 -890.0
79 344 -2532.0
80 12 -1.0
80 28 -6.0
80 44 -1.0
80 60 -1.0
80 76 -1.0
80 337 -716.0
80 338 -2142.0
80 339 -2127.0
80 340 -2558.0
80 341 -2001.0
80 342 -1996.0
80 343 -1853.0
80 344 -626.0
81 13 -2.0
81 29 -7.0
81 45 -7.0
81 61 -7.0
81 77 -6.0
81 353 -2704.0
81 354 -2504.0
81 355 -2966.0
81 356 -1446.0
81 357 -2236.0
81 358 -2808.0
81 359 -1753.0
81 360 -1379.0
82 13 -9.0
82 29 -6.0
82 45 -9.0
82 61 -9.0
82 77 -9.0
82 353 -2282.0
82 354 -2858.0
82 355 -2563.0
82 356 -1730.0
82 357 -2292.0
82 358 -1630.0
82 359 -1716.0
82 360 -2352.0
83 13 -8.0
83 29 -4.0
83 45 -7.0
83 61 -5.0
83 77 -2.0
83 353 -2753.0
83 354 -2823.0
83 355 -2218.0
83 356 -2830.0
83 357 -1911.0
83 358 -2281.0
83 359 -890.0
83 360 -2532.0
84 13 -1.0
84 29 -6.0
84 45 -1.0
84 61 -1.0
84 77 -1.0
84 353 -716.0
84 354 -2142.0
84 355 -2127.0
84 356 -2558.0
84 357 -2001.0
84 358 -1996.0
84 359 -1853.0
84 360 -626.0
85 14 -2.0
85 30 -7.0
85 46 -7.0
85 62 -7.0
85 78 -6.0
85 369 -2704.0
85 370 -2504.0
85 371 -2966.0
85 372 -1446.0
85 373 -2236.0
85 374 -2808.0
85 375 -1753.0
85 376 -1379.0
86 14 -9.0
86 30 -6.0
86 46 -9.0
86 62 -9.0
86 78 -9.0
86 369 -2282.0
86 370 -2858.0
86 371 -2563.0
86 372 -1730.0
86 373 -2292.0
86 374 -1630.0
86 375 -1716.0
86 376 -2352.0
87 14 -8.0
87 30 -4.0
87 46 -7.0
87 62 -5.0
87 78 -2.0
87 369 -2753.0
87 370 -2823.0
87 371 -2218.0
87 372 -2830.0
87 373 -1911.0
87 374 -2281.0
87 375 -890.0
87 376 -2532.0
88 14 -1.0
88 30 -6.0
88 46 -1.0
88 62 -1.0
88 78 -1.0
88 369 -716.0
88 370 -2142.0
88 371 -2127.0
88 372 -2558.0
88 373 -2001.0
88 374 -1996.0
88 375 -1853.0
88 376 -626.0
89 15 -2.0
89 31 -7.0
89 47 -7.0
89 63 -7.0
89 79 -6.0
89 385 -2704.0
89 386 -2504.0
89 387 -2966.0
89 388 -1446.0
89 389 -2236.0
89 390 -2808.0
89 391 -1753.0
89 392 -1379.0
90 15 -9.0
90 31 -6.0
90 47 -9.0
90 63 -9.0
90 79 -9.0
90 385 -2282.0
90 386 -2858.0
90 387 -2563.0
90 388 -1730.0
90 389 -2292.0
90 390 -1630.0
90 391 -1716.0
90 392 -2352.0
91 15 -8.0
91 31 -4.0
91 47 -7.0
91 63 -5.0
91 79 -2.0
91 385 -2753.0
91 386 -2823.0
91 387 -2218.0
91 388 -2830.0
91 389 -1911.0
91 390 -2281.0
91 391 -890.0
91 392 -2532.0
92 15 -1.0
92 31 -6.0
92 47 -1.0
92 63 -1.0
92 79 -1.0
92 385 -716.0
92 386 -2142.0
92 387 -2127.0
92 388 -2558.0
92 389 -2001.0
92 390 -1996.0
92 391 -1853.0
92 392 -626.0
93 16 -2.0
93 32 -7.0
93 48 -7.0
93 64 -7.0
93 80 -6.0
93 401 -2704.0
93 402 -2504.0
93 403 -2966.0
93 404 -1446.0
93 405 -2236.0
93 406 -2808.0
93 407 -1753.0
93 408 -1379.0
94 16 -9.0
94 32 -6.0
94 48 -9.0
94 64 -9.0
94 80 -9.0
94 401 -2282.0
94 402 -2858.0
94 403 -2563.0
94 404 -1730.0
94 405 -2292.0
94 406 -1630.0
94 407 -1716.0
94 408 -2352.0
95 16 -8.0
95 32 -4.0
95 48 -7.0
95 64 -5.0
95 80 -2.0
95 401 -2753.0
95 402 -2823.0
95 403 -2218.0
95 404 -2830.0
95 405 -1911.0
95 406 -2281.0
95 407 -890.0
95 408 -2532.0
96 16 -1.0
96 32 -6.0
96 48 -1.0
96 64 -1.0
96 80 -1.0
96 401 -716.0
96 402 -2142.0
96 403 -2127.0
96 404 -2558.0
96 405 -2001.0
96 406 -1996.0
96 407 -1853.0
96 408 -626.0
1.79769313486232E+308 # value for infinity
0.0 # default left-hand-side value
80 # number of non-default left-hand-sides
9 -98.0
10 -75.0
11 -85.0
12 -195.0
13 -60.0
14 -23.0
15 -100.0
16 -45.0
25 -58.0
26 -115.0
27 -85.0
28 -200.0
29 -40.0
30 -45.0
31 -120.0
32 -75.0
65 -41846.0
66 -204526.0
67 -172382.0
68 -47236.0
69 -156450.0
70 -139725.0
71 -164625.0
72 -29700.0
73 -171020.0
74 -84490.0
75 -163455.0
76 -176460.0
77 -126165.0
78 -108615.0
79 -326625.0
80 -454350.0
81 -113880.0
82 -31620.0
83 -22860.0
84 -75420.0
85 -39514.0
86 -19734.0
87 -7429.0
88 -4393.0
89 -166100.0
90 -136600.0
91 -41300.0
92 -154600.0
93 -55935.0
94 -28755.0
95 -93510.0
96 -11205.0
97 -3752.0
98 -146060.0
99 -151420.0
100 -93800.0
101 -10434.0
102 -29748.0
103 -42254.0
104 -20202.0
105 -48022.0
106 -13806.0
107 -14612.0
108 -39182.0
109 -123816.0
110 -23056.0
111 -209352.0
112 -195536.0
113 -107500.0
114 -24600.0
115 -79900.0
116 -186000.0
117 -5280.0
118 -31240.0
119 -67155.0
120 -76175.0
121 -57900.0
122 -9850.0
123 -35700.0
124 -134550.0
125 -2626.0
126 -33748.0
127 -23088.0
128 -67496.0
1.79769313486232E+308 # default right-hand-side value
96 # number of non-default right-hand-sides
1 0.0
2 0.0
3 0.0
4 0.0
5 0.0
6 0.0
7 0.0
8 0.0
9 -98.0
10 -75.0
11 -85.0
12 -195.0
13 -60.0
14 -23.0
15 -100.0
16 -45.0
17 0.0
18 0.0
19 0.0
20 0.0
21 0.0
22 0.0
23 0.0
24 0.0
25 -58.0
26 -115.0
27 -85.0
28 -200.0
29 -40.0
30 -45.0
31 -120.0
32 -75.0
33 0.0
34 0.0
35 0.0
36 0.0
37 0.0
38 0.0
39 0.0
40 0.0
41 0.0
42 0.0
43 0.0
44 0.0
45 0.0
46 0.0
47 0.0
48 0.0
49 0.0
50 0.0
51 0.0
52 0.0
53 0.0
54 0.0
55 0.0
56 0.0
57 0.0
58 0.0
59 0.0
60 0.0
61 0.0
62 0.0
63 0.0
64 0.0
97 -3752.0
98 -146060.0
99 -151420.0
100 -93800.0
101 -10434.0
102 -29748.0
103 -42254.0
104 -20202.0
105 -48022.0
106 -13806.0
107 -14612.0
108 -39182.0
109 -123816.0
110 -23056.0
111 -209352.0
112 -195536.0
113 -107500.0
114 -24600.0
115 -79900.0
116 -186000.0
117 -5280.0
118 -31240.0
119 -67155.0
120 -76175.0
121 -57900.0
122 -9850.0
123 -35700.0
124 -134550.0
125 -2626.0
126 -33748.0
127 -23088.0
128 -67496.0
0.0 # default variable lower bound value
0 # number of non-default variable lower bounds
100000.0 # default variable upper bound value
72 # number of non-default variable upper bounds
81 2250.0
82 575.0
83 203.0
84 1393.0
85 298.0
86 2353.0
87 364.0
88 2396.0
89 883.0
90 1292.0
91 2398.0
92 862.0
93 1257.0
94 2354.0
95 327.0
96 341.0
97 1680.0
98 2476.0
99 2105.0
100 1092.0
101 1759.0
102 301.0
103 139.0
104 1354.0
105 58.0
106 2025.0
107 511.0
108 124.0
109 2084.0
110 538.0
111 537.0
112 225.0
113 2278.0
114 1665.0
115 1333.0
116 2093.0
117 439.0
118 2755.0
119 935.0
120 2669.0
121 2730.0
122 1823.0
123 2960.0
124 2369.0
125 2664.0
126 2616.0
127 2706.0
128 2563.0
129 2755.0
130 2722.0
131 2904.0
132 2952.0
133 1855.0
134 869.0
135 1360.0
136 2739.0
137 1216.0
138 2222.0
139 1225.0
140 2815.0
141 2185.0
142 1836.0
143 1425.0
144 2821.0
145 134.0
162 74.0
179 26.0
196 88.0
213 100.0
230 55.0
247 50.0
264 26.0
0.0 # default variable primal value in starting point
0 # number of non-default variable primal values in starting point
0.0 # default constraint dual value in starting point
0 # number of non-default constraint dual values in starting point
0.0 # default variable bound dual value in starting point
0 # number of non-default variable bound dual values in starting point
0 # number of non-default variable names
0 # number of non-default constraint names
